solution status: optimal solution found
objective value:                     204508.334469359
d11(0,0)                                            1 	(obj:0)
d11(2,3)                                            1 	(obj:0)
d11(2,4)                                            1 	(obj:0)
d11(2,5)                                            1 	(obj:0)
d11(2,6)                                            1 	(obj:0)
d11(3,7)                                            1 	(obj:0)
d11(3,8)                                            1 	(obj:0)
d11(3,9)                                            1 	(obj:0)
d11(3,10)                                           1 	(obj:0)
d11(3,11)                                           1 	(obj:0)
d11(3,13)                                           1 	(obj:0)
d11(4,15)                                           1 	(obj:0)
d11(4,16)                                           1 	(obj:0)
d11(4,17)                                           1 	(obj:0)
d11(4,18)                                           1 	(obj:0)
d11(4,19)                                           1 	(obj:0)
d11(4,20)                                           1 	(obj:0)
d11(4,21)                                           1 	(obj:0)
d11(4,22)                                           1 	(obj:0)
d11(4,23)                                           1 	(obj:0)
d11(4,25)                                           1 	(obj:0)
d11(4,26)                                           1 	(obj:0)
d11(4,27)                                           1 	(obj:0)
d11(4,28)                                           1 	(obj:0)
d11(4,29)                                           1 	(obj:0)
d12(1,2)                                            1 	(obj:0)
d21(3,7)                                            1 	(obj:0)
d21(4,15)                                           1 	(obj:0)
d21(4,16)                                           1 	(obj:0)
d21(4,17)                                           1 	(obj:0)
d21(4,19)                                           1 	(obj:0)
d21(4,23)                                           1 	(obj:0)
d21(4,24)                                           1 	(obj:0)
d21(4,25)                                           1 	(obj:0)
d21(4,27)                                           1 	(obj:0)
STE(1,1)                                        11592 	(obj:0)
STE(0,0)                                        12600 	(obj:0)
STE(1,2)                             12908.2140858765 	(obj:0)
STE(2,3)                             3276.00000000282 	(obj:0)
STE(2,4)                             4934.24989889163 	(obj:0)
STE(2,5)                             4592.21408587932 	(obj:0)
STE(2,6)                             6250.46398476814 	(obj:0)
STE(3,7)                              609.75010111397 	(obj:0)
STE(3,8)                             2268.00000000279 	(obj:0)
STE(3,9)                             2268.00000000279 	(obj:0)
STE(3,10)                            3926.24989889163 	(obj:0)
STE(3,11)                            1925.96418699048 	(obj:0)
STE(3,12)                            3584.21408587932 	(obj:0)
STE(3,13)                            3584.21408587929 	(obj:0)
STE(3,14)                            5242.46398476814 	(obj:0)
STE(4,15)                           -2056.49979777488 	(obj:0)
STE(4,16)                            -398.24989888603 	(obj:0)
STE(4,17)                           -398.249898886058 	(obj:0)
STE(4,18)                            1260.00000000279 	(obj:0)
STE(4,19)                           -398.249898886058 	(obj:0)
STE(4,20)                            1260.00000000279 	(obj:0)
STE(4,21)                            1260.00000000279 	(obj:0)
STE(4,22)                            2918.24989889163 	(obj:0)
STE(4,23)                           -740.285711898321 	(obj:0)
STE(4,24)                            917.964186990478 	(obj:0)
STE(4,25)                            917.964186990478 	(obj:0)
STE(4,26)                            2576.21408587932 	(obj:0)
STE(4,27)                            917.964186990448 	(obj:0)
STE(4,28)                            2576.21408587929 	(obj:0)
STE(4,29)                            2576.21408587929 	(obj:0)
STE(4,30)                            4234.46398476814 	(obj:0)
y1(3,11)                             1492.42490899996 	(obj:0)
y1(3,13)                             1492.42490899996 	(obj:0)
y1(4,15)                             1492.42490899996 	(obj:0)
y1(4,17)                             1492.42490899996 	(obj:0)
y1(4,19)                             1492.42490899996 	(obj:0)
y1(4,21)                             1492.42490899996 	(obj:0)
y1(4,23)                             1492.42490899992 	(obj:0)
y1(4,25)                             1492.42490899996 	(obj:0)
y1(4,27)                             1492.42490899996 	(obj:0)
y1(4,29)                             1492.42490899996 	(obj:0)
WB(1)                                3265.91696791192 	(obj:0)
AVE(1)                               3265.91696791192 	(obj:0)
AVE(2)                               3332.74178563731 	(obj:0)
AVE(3)                               3444.11697932125 	(obj:0)
AVE(4)                               3399.56511093778 	(obj:0)
WG(2)                                3332.74178563731 	(obj:10)
WG(3)                                3444.11697932125 	(obj:10)
WG(4)                                3399.56511093778 	(obj:10)
BG(1)                                2673.40993877551 	(obj:10)
BG(2)                                6052.09672456423 	(obj:10)
BG(3)                                752.175519658342 	(obj:10)
BG(4)                                796.727388041812 	(obj:10)
y1(2,3)                              6577.19999999747 	(obj:0)
y1(2,4)                              5084.77509099753 	(obj:0)
y1(2,5)                              6577.19999999747 	(obj:0)
y1(2,6)                              5084.77509099753 	(obj:0)
y1(3,7)                              1492.42490899996 	(obj:0)
y1(3,9)                              1492.42490899996 	(obj:0)
y2(1,2)                              1385.48851144895 	(obj:0)
